10
1 2 98.0
1 3 97.0
1 4 87.0
1 5 12.0
1 6 58.0
1 7 90.0
1 8 2.0
1 9 28.0
1 10 55.0
2 3 18.0
2 4 53.0
2 5 72.0
2 6 1.0
2 7 63.0
2 8 41.0
2 9 19.0
2 10 1.0
3 4 40.0
3 5 47.0
3 6 99.0
3 7 29.0
3 8 84.0
3 9 79.0
3 10 27.0
4 5 44.0
4 6 36.0
4 7 96.0
4 8 97.0
4 9 90.0
4 10 57.0
5 6 9.0
5 7 96.0
5 8 86.0
5 9 81.0
5 10 24.0
6 7 88.0
6 8 80.0
6 9 31.0
6 10 3.0
7 8 97.0
7 9 65.0
7 10 23.0
8 9 65.0
8 10 39.0
9 10 77.0
